NAME : eil4
COMMENT : (Eilon et al.)
TYPE : CVRP
DIMENSION : 4
EDGE_WEIGHT_TYPE : EXPLICIT
EDGE_WEIGHT_FORMAT: LOWER_DIAG_ROW 
DISPLAY_DATA_TYPE: NO_DISPLAY
CAPACITY : 2
EDGE_WEIGHT_SECTION
    10    20    25    25    20    10    
DEMAND_SECTION
1 0
2 1
3 1
4 1
DEPOT_SECTION
1
-1
EOF
